% seed = 4868919

mint = 44;
% maxt = 117;

nActs = 22;
dur = [0,5,8,6,2,3,4,1,7,9,6,5,8,8,10,3,2,3,10,9,8,0];

nSkills = 4;
sreq = [| 0,0,0,0,
	| 2,2,2,1,
	| 2,2,2,2,
	| 3,1,3,3,
	| 3,2,3,3,
	| 2,3,1,2,
	| 2,1,1,2,
	| 2,2,1,1,
	| 3,2,3,2,
	| 3,1,1,3,
	| 2,3,1,3,
	| 2,3,2,1,
	| 1,2,3,3,
	| 2,3,1,2,
	| 2,2,1,3,
	| 1,3,2,2,
	| 2,3,1,2,
	| 2,1,2,2,
	| 2,2,1,2,
	| 1,2,2,2,
	| 2,1,1,3,
	| 0,0,0,0, |];

nResources = 20;
mastery = [| false,true,true,false,
	| false,false,false,true,
	| true,false,true,true,
	| false,false,false,true,
	| false,true,false,false,
	| false,false,true,false,
	| true,false,false,false,
	| false,true,true,false,
	| false,false,false,true,
	| false,false,true,false,
	| true,true,false,false,
	| true,false,false,false,
	| false,true,true,false,
	| false,true,false,false,
	| false,false,true,false,
	| true,true,true,false,
	| true,true,true,false,
	| false,true,false,true,
	| false,false,true,false,
	| false,false,true,false, |];

nPrecs = 43;
pred = [1,1,1,2,2,2,3,3,3,4,4,4,5,5,5,6,7,7,8,8,8,9,10,10,10,11,11,11,12,12,13,14,14,14,15,15,16,16,17,18,19,20,21];
succ = [2,3,4,9,20,6,9,5,8,9,5,8,11,12,7,12,10,14,10,12,14,16,17,18,13,17,13,15,18,19,16,17,18,20,20,16,19,21,21,21,22,22,22];

nUnrels = 80;
unpred = [2,2,2,2,2,2,2,2,2,2,2,3,3,4,5,5,5,6,6,6,6,6,6,6,6,6,6,6,7,7,7,7,7,8,8,8,9,9,9,9,9,9,9,9,9,10,10,10,10,10,11,11,11,12,12,12,12,12,12,13,13,13,13,13,14,14,14,15,15,16,16,16,17,17,17,18,18,19,19,20];
unsucc = [3,4,5,7,8,10,11,13,14,15,17,4,6,6,6,8,9,7,8,9,10,11,13,14,15,16,17,20,8,9,11,12,15,9,11,15,10,11,12,13,14,15,17,18,20,11,12,14,15,20,12,14,18,13,14,15,16,17,20,14,15,17,18,20,15,16,19,17,18,17,18,20,18,19,20,19,20,20,21,21];

USEFUL_RES = [{},
	{1,2,3,4,5,6,7,8,9,10,11,12,13,14,15,16,17,18,19,20},
	{1,2,3,4,5,6,7,8,9,10,11,12,13,14,15,16,17,18,19,20},
	{1,2,3,4,5,6,7,8,9,10,11,12,13,14,15,16,17,18,19,20},
	{1,2,3,4,5,6,7,8,9,10,11,12,13,14,15,16,17,18,19,20},
	{1,2,3,4,5,6,7,8,9,10,11,12,13,14,15,16,17,18,19,20},
	{1,2,3,4,5,6,7,8,9,10,11,12,13,14,15,16,17,18,19,20},
	{1,2,3,4,5,6,7,8,9,10,11,12,13,14,15,16,17,18,19,20},
	{1,2,3,4,5,6,7,8,9,10,11,12,13,14,15,16,17,18,19,20},
	{1,2,3,4,5,6,7,8,9,10,11,12,13,14,15,16,17,18,19,20},
	{1,2,3,4,5,6,7,8,9,10,11,12,13,14,15,16,17,18,19,20},
	{1,2,3,4,5,6,7,8,9,10,11,12,13,14,15,16,17,18,19,20},
	{1,2,3,4,5,6,7,8,9,10,11,12,13,14,15,16,17,18,19,20},
	{1,2,3,4,5,6,7,8,9,10,11,12,13,14,15,16,17,18,19,20},
	{1,2,3,4,5,6,7,8,9,10,11,12,13,14,15,16,17,18,19,20},
	{1,2,3,4,5,6,7,8,9,10,11,12,13,14,15,16,17,18,19,20},
	{1,2,3,4,5,6,7,8,9,10,11,12,13,14,15,16,17,18,19,20},
	{1,2,3,4,5,6,7,8,9,10,11,12,13,14,15,16,17,18,19,20},
	{1,2,3,4,5,6,7,8,9,10,11,12,13,14,15,16,17,18,19,20},
	{1,2,3,4,5,6,7,8,9,10,11,12,13,14,15,16,17,18,19,20},
	{1,2,3,4,5,6,7,8,9,10,11,12,13,14,15,16,17,18,19,20},
	{}];

POTENTIAL_ACT = [{2,3,4,5,6,7,8,9,10,11,12,13,14,15,16,17,18,19,20,21},
	{2,3,4,5,6,7,8,9,10,11,12,13,14,15,16,17,18,19,20,21},
	{2,3,4,5,6,7,8,9,10,11,12,13,14,15,16,17,18,19,20,21},
	{2,3,4,5,6,7,8,9,10,11,12,13,14,15,16,17,18,19,20,21},
	{2,3,4,5,6,7,8,9,10,11,12,13,14,15,16,17,18,19,20,21},
	{2,3,4,5,6,7,8,9,10,11,12,13,14,15,16,17,18,19,20,21},
	{2,3,4,5,6,7,8,9,10,11,12,13,14,15,16,17,18,19,20,21},
	{2,3,4,5,6,7,8,9,10,11,12,13,14,15,16,17,18,19,20,21},
	{2,3,4,5,6,7,8,9,10,11,12,13,14,15,16,17,18,19,20,21},
	{2,3,4,5,6,7,8,9,10,11,12,13,14,15,16,17,18,19,20,21},
	{2,3,4,5,6,7,8,9,10,11,12,13,14,15,16,17,18,19,20,21},
	{2,3,4,5,6,7,8,9,10,11,12,13,14,15,16,17,18,19,20,21},
	{2,3,4,5,6,7,8,9,10,11,12,13,14,15,16,17,18,19,20,21},
	{2,3,4,5,6,7,8,9,10,11,12,13,14,15,16,17,18,19,20,21},
	{2,3,4,5,6,7,8,9,10,11,12,13,14,15,16,17,18,19,20,21},
	{2,3,4,5,6,7,8,9,10,11,12,13,14,15,16,17,18,19,20,21},
	{2,3,4,5,6,7,8,9,10,11,12,13,14,15,16,17,18,19,20,21},
	{2,3,4,5,6,7,8,9,10,11,12,13,14,15,16,17,18,19,20,21},
	{2,3,4,5,6,7,8,9,10,11,12,13,14,15,16,17,18,19,20,21},
	{2,3,4,5,6,7,8,9,10,11,12,13,14,15,16,17,18,19,20,21}];
